\ LP format - for model browsing. Use MPS format to capture full model detail.
Minimize
  0 alpha
Subject To
 R0: x_0_1 - v_0 + 1000 y_0 <= 1000
 R1: x_1_0 - v_1 + 1000 y_1 <= 1000
 R2: y_0 + y_1 >= 1
 R3: x_0_2 - v_0 + 1000 y_2 <= 1000
 R4: x_2_0 - v_2 + 1000 y_3 <= 1000
 R5: y_2 + y_3 >= 1
 R6: x_0_3 - v_0 + 1000 y_4 <= 1000
 R7: x_3_0 - v_3 + 1000 y_5 <= 1000
 R8: y_4 + y_5 >= 1
 R9: x_0_4 - v_0 + 1000 y_6 <= 1000
 R10: x_4_0 - v_4 + 1000 y_7 <= 1000
 R11: y_6 + y_7 >= 1
 R12: x_0_5 - v_0 + 1000 y_8 <= 1000
 R13: x_5_0 - v_5 + 1000 y_9 <= 1000
 R14: y_8 + y_9 >= 1
 R15: x_0_6 - v_0 + 1000 y_10 <= 1000
 R16: x_6_0 - v_6 + 1000 y_11 <= 1000
 R17: y_10 + y_11 >= 1
 R18: x_0_7 - v_0 + 1000 y_12 <= 1000
 R19: x_7_0 - v_7 + 1000 y_13 <= 1000
 R20: y_12 + y_13 >= 1
 R21: x_1_2 - v_1 + 1000 y_14 <= 1000
 R22: x_2_1 - v_2 + 1000 y_15 <= 1000
 R23: y_14 + y_15 >= 1
 R24: x_1_3 - v_1 + 1000 y_16 <= 1000
 R25: x_3_1 - v_3 + 1000 y_17 <= 1000
 R26: y_16 + y_17 >= 1
 R27: x_1_4 - v_1 + 1000 y_18 <= 1000
 R28: x_4_1 - v_4 + 1000 y_19 <= 1000
 R29: y_18 + y_19 >= 1
 R30: x_1_5 - v_1 + 1000 y_20 <= 1000
 R31: x_5_1 - v_5 + 1000 y_21 <= 1000
 R32: y_20 + y_21 >= 1
 R33: x_1_6 - v_1 + 1000 y_22 <= 1000
 R34: x_6_1 - v_6 + 1000 y_23 <= 1000
 R35: y_22 + y_23 >= 1
 R36: x_1_7 - v_1 + 1000 y_24 <= 1000
 R37: x_7_1 - v_7 + 1000 y_25 <= 1000
 R38: y_24 + y_25 >= 1
 R39: x_2_3 - v_2 + 1000 y_26 <= 1000
 R40: x_3_2 - v_3 + 1000 y_27 <= 1000
 R41: y_26 + y_27 >= 1
 R42: x_2_4 - v_2 + 1000 y_28 <= 1000
 R43: x_4_2 - v_4 + 1000 y_29 <= 1000
 R44: y_28 + y_29 >= 1
 R45: x_2_5 - v_2 + 1000 y_30 <= 1000
 R46: x_5_2 - v_5 + 1000 y_31 <= 1000
 R47: y_30 + y_31 >= 1
 R48: x_2_6 - v_2 + 1000 y_32 <= 1000
 R49: x_6_2 - v_6 + 1000 y_33 <= 1000
 R50: y_32 + y_33 >= 1
 R51: x_2_7 - v_2 + 1000 y_34 <= 1000
 R52: x_7_2 - v_7 + 1000 y_35 <= 1000
 R53: y_34 + y_35 >= 1
 R54: x_3_4 - v_3 + 1000 y_36 <= 1000
 R55: x_4_3 - v_4 + 1000 y_37 <= 1000
 R56: y_36 + y_37 >= 1
 R57: x_3_5 - v_3 + 1000 y_38 <= 1000
 R58: x_5_3 - v_5 + 1000 y_39 <= 1000
 R59: y_38 + y_39 >= 1
 R60: x_3_6 - v_3 + 1000 y_40 <= 1000
 R61: x_6_3 - v_6 + 1000 y_41 <= 1000
 R62: y_40 + y_41 >= 1
 R63: x_3_7 - v_3 + 1000 y_42 <= 1000
 R64: x_7_3 - v_7 + 1000 y_43 <= 1000
 R65: y_42 + y_43 >= 1
 R66: x_4_5 - v_4 + 1000 y_44 <= 1000
 R67: x_5_4 - v_5 + 1000 y_45 <= 1000
 R68: y_44 + y_45 >= 1
 R69: x_4_6 - v_4 + 1000 y_46 <= 1000
 R70: x_6_4 - v_6 + 1000 y_47 <= 1000
 R71: y_46 + y_47 >= 1
 R72: x_4_7 - v_4 + 1000 y_48 <= 1000
 R73: x_7_4 - v_7 + 1000 y_49 <= 1000
 R74: y_48 + y_49 >= 1
 R75: x_5_6 - v_5 + 1000 y_50 <= 1000
 R76: x_6_5 - v_6 + 1000 y_51 <= 1000
 R77: y_50 + y_51 >= 1
 R78: x_5_7 - v_5 + 1000 y_52 <= 1000
 R79: x_7_5 - v_7 + 1000 y_53 <= 1000
 R80: y_52 + y_53 >= 1
 R81: x_6_7 - v_6 + 1000 y_54 <= 1000
 R82: x_7_6 - v_7 + 1000 y_55 <= 1000
 R83: y_54 + y_55 >= 1
 R84: x_0_1 + x_0_2 - v_0 + 1000 y_56 <= 1000
 R85: x_1_0 + x_1_2 - v_1 + 1000 y_57 <= 1000
 R86: x_2_0 + x_2_1 - v_2 + 1000 y_58 <= 1000
 R87: y_56 + y_57 + y_58 >= 1
 R88: x_0_1 + x_0_3 - v_0 + 1000 y_59 <= 1000
 R89: x_1_0 + x_1_3 - v_1 + 1000 y_60 <= 1000
 R90: x_3_0 + x_3_1 - v_3 + 1000 y_61 <= 1000
 R91: y_59 + y_60 + y_61 >= 1
 R92: x_0_1 + x_0_4 - v_0 + 1000 y_62 <= 1000
 R93: x_1_0 + x_1_4 - v_1 + 1000 y_63 <= 1000
 R94: x_4_0 + x_4_1 - v_4 + 1000 y_64 <= 1000
 R95: y_62 + y_63 + y_64 >= 1
 R96: x_0_1 + x_0_5 - v_0 + 1000 y_65 <= 1000
 R97: x_1_0 + x_1_5 - v_1 + 1000 y_66 <= 1000
 R98: x_5_0 + x_5_1 - v_5 + 1000 y_67 <= 1000
 R99: y_65 + y_66 + y_67 >= 1
 R100: x_0_1 + x_0_6 - v_0 + 1000 y_68 <= 1000
 R101: x_1_0 + x_1_6 - v_1 + 1000 y_69 <= 1000
 R102: x_6_0 + x_6_1 - v_6 + 1000 y_70 <= 1000
 R103: y_68 + y_69 + y_70 >= 1
 R104: x_0_1 + x_0_7 - v_0 + 1000 y_71 <= 1000
 R105: x_1_0 + x_1_7 - v_1 + 1000 y_72 <= 1000
 R106: x_7_0 + x_7_1 - v_7 + 1000 y_73 <= 1000
 R107: y_71 + y_72 + y_73 >= 1
 R108: x_0_2 + x_0_3 - v_0 + 1000 y_74 <= 1000
 R109: x_2_0 + x_2_3 - v_2 + 1000 y_75 <= 1000
 R110: x_3_0 + x_3_2 - v_3 + 1000 y_76 <= 1000
 R111: y_74 + y_75 + y_76 >= 1
 R112: x_0_2 + x_0_4 - v_0 + 1000 y_77 <= 1000
 R113: x_2_0 + x_2_4 - v_2 + 1000 y_78 <= 1000
 R114: x_4_0 + x_4_2 - v_4 + 1000 y_79 <= 1000
 R115: y_77 + y_78 + y_79 >= 1
 R116: x_0_2 + x_0_5 - v_0 + 1000 y_80 <= 1000
 R117: x_2_0 + x_2_5 - v_2 + 1000 y_81 <= 1000
 R118: x_5_0 + x_5_2 - v_5 + 1000 y_82 <= 1000
 R119: y_80 + y_81 + y_82 >= 1
 R120: x_0_2 + x_0_6 - v_0 + 1000 y_83 <= 1000
 R121: x_2_0 + x_2_6 - v_2 + 1000 y_84 <= 1000
 R122: x_6_0 + x_6_2 - v_6 + 1000 y_85 <= 1000
 R123: y_83 + y_84 + y_85 >= 1
 R124: x_0_2 + x_0_7 - v_0 + 1000 y_86 <= 1000
 R125: x_2_0 + x_2_7 - v_2 + 1000 y_87 <= 1000
 R126: x_7_0 + x_7_2 - v_7 + 1000 y_88 <= 1000
 R127: y_86 + y_87 + y_88 >= 1
 R128: x_0_3 + x_0_4 - v_0 + 1000 y_89 <= 1000
 R129: x_3_0 + x_3_4 - v_3 + 1000 y_90 <= 1000
 R130: x_4_0 + x_4_3 - v_4 + 1000 y_91 <= 1000
 R131: y_89 + y_90 + y_91 >= 1
 R132: x_0_3 + x_0_5 - v_0 + 1000 y_92 <= 1000
 R133: x_3_0 + x_3_5 - v_3 + 1000 y_93 <= 1000
 R134: x_5_0 + x_5_3 - v_5 + 1000 y_94 <= 1000
 R135: y_92 + y_93 + y_94 >= 1
 R136: x_0_3 + x_0_6 - v_0 + 1000 y_95 <= 1000
 R137: x_3_0 + x_3_6 - v_3 + 1000 y_96 <= 1000
 R138: x_6_0 + x_6_3 - v_6 + 1000 y_97 <= 1000
 R139: y_95 + y_96 + y_97 >= 1
 R140: x_0_3 + x_0_7 - v_0 + 1000 y_98 <= 1000
 R141: x_3_0 + x_3_7 - v_3 + 1000 y_99 <= 1000
 R142: x_7_0 + x_7_3 - v_7 + 1000 y_100 <= 1000
 R143: y_98 + y_99 + y_100 >= 1
 R144: x_0_4 + x_0_5 - v_0 + 1000 y_101 <= 1000
 R145: x_4_0 + x_4_5 - v_4 + 1000 y_102 <= 1000
 R146: x_5_0 + x_5_4 - v_5 + 1000 y_103 <= 1000
 R147: y_101 + y_102 + y_103 >= 1
 R148: x_0_4 + x_0_6 - v_0 + 1000 y_104 <= 1000
 R149: x_4_0 + x_4_6 - v_4 + 1000 y_105 <= 1000
 R150: x_6_0 + x_6_4 - v_6 + 1000 y_106 <= 1000
 R151: y_104 + y_105 + y_106 >= 1
 R152: x_0_4 + x_0_7 - v_0 + 1000 y_107 <= 1000
 R153: x_4_0 + x_4_7 - v_4 + 1000 y_108 <= 1000
 R154: x_7_0 + x_7_4 - v_7 + 1000 y_109 <= 1000
 R155: y_107 + y_108 + y_109 >= 1
 R156: x_0_5 + x_0_6 - v_0 + 1000 y_110 <= 1000
 R157: x_5_0 + x_5_6 - v_5 + 1000 y_111 <= 1000
 R158: x_6_0 + x_6_5 - v_6 + 1000 y_112 <= 1000
 R159: y_110 + y_111 + y_112 >= 1
 R160: x_0_5 + x_0_7 - v_0 + 1000 y_113 <= 1000
 R161: x_5_0 + x_5_7 - v_5 + 1000 y_114 <= 1000
 R162: x_7_0 + x_7_5 - v_7 + 1000 y_115 <= 1000
 R163: y_113 + y_114 + y_115 >= 1
 R164: x_0_6 + x_0_7 - v_0 + 1000 y_116 <= 1000
 R165: x_6_0 + x_6_7 - v_6 + 1000 y_117 <= 1000
 R166: x_7_0 + x_7_6 - v_7 + 1000 y_118 <= 1000
 R167: y_116 + y_117 + y_118 >= 1
 R168: x_1_2 + x_1_3 - v_1 + 1000 y_119 <= 1000
 R169: x_2_1 + x_2_3 - v_2 + 1000 y_120 <= 1000
 R170: x_3_1 + x_3_2 - v_3 + 1000 y_121 <= 1000
 R171: y_119 + y_120 + y_121 >= 1
 R172: x_1_2 + x_1_4 - v_1 + 1000 y_122 <= 1000
 R173: x_2_1 + x_2_4 - v_2 + 1000 y_123 <= 1000
 R174: x_4_1 + x_4_2 - v_4 + 1000 y_124 <= 1000
 R175: y_122 + y_123 + y_124 >= 1
 R176: x_1_2 + x_1_5 - v_1 + 1000 y_125 <= 1000
 R177: x_2_1 + x_2_5 - v_2 + 1000 y_126 <= 1000
 R178: x_5_1 + x_5_2 - v_5 + 1000 y_127 <= 1000
 R179: y_125 + y_126 + y_127 >= 1
 R180: x_1_2 + x_1_6 - v_1 + 1000 y_128 <= 1000
 R181: x_2_1 + x_2_6 - v_2 + 1000 y_129 <= 1000
 R182: x_6_1 + x_6_2 - v_6 + 1000 y_130 <= 1000
 R183: y_128 + y_129 + y_130 >= 1
 R184: x_1_2 + x_1_7 - v_1 + 1000 y_131 <= 1000
 R185: x_2_1 + x_2_7 - v_2 + 1000 y_132 <= 1000
 R186: x_7_1 + x_7_2 - v_7 + 1000 y_133 <= 1000
 R187: y_131 + y_132 + y_133 >= 1
 R188: x_1_3 + x_1_4 - v_1 + 1000 y_134 <= 1000
 R189: x_3_1 + x_3_4 - v_3 + 1000 y_135 <= 1000
 R190: x_4_1 + x_4_3 - v_4 + 1000 y_136 <= 1000
 R191: y_134 + y_135 + y_136 >= 1
 R192: x_1_3 + x_1_5 - v_1 + 1000 y_137 <= 1000
 R193: x_3_1 + x_3_5 - v_3 + 1000 y_138 <= 1000
 R194: x_5_1 + x_5_3 - v_5 + 1000 y_139 <= 1000
 R195: y_137 + y_138 + y_139 >= 1
 R196: x_1_3 + x_1_6 - v_1 + 1000 y_140 <= 1000
 R197: x_3_1 + x_3_6 - v_3 + 1000 y_141 <= 1000
 R198: x_6_1 + x_6_3 - v_6 + 1000 y_142 <= 1000
 R199: y_140 + y_141 + y_142 >= 1
 R200: x_1_3 + x_1_7 - v_1 + 1000 y_143 <= 1000
 R201: x_3_1 + x_3_7 - v_3 + 1000 y_144 <= 1000
 R202: x_7_1 + x_7_3 - v_7 + 1000 y_145 <= 1000
 R203: y_143 + y_144 + y_145 >= 1
 R204: x_1_4 + x_1_5 - v_1 + 1000 y_146 <= 1000
 R205: x_4_1 + x_4_5 - v_4 + 1000 y_147 <= 1000
 R206: x_5_1 + x_5_4 - v_5 + 1000 y_148 <= 1000
 R207: y_146 + y_147 + y_148 >= 1
 R208: x_1_4 + x_1_6 - v_1 + 1000 y_149 <= 1000
 R209: x_4_1 + x_4_6 - v_4 + 1000 y_150 <= 1000
 R210: x_6_1 + x_6_4 - v_6 + 1000 y_151 <= 1000
 R211: y_149 + y_150 + y_151 >= 1
 R212: x_1_4 + x_1_7 - v_1 + 1000 y_152 <= 1000
 R213: x_4_1 + x_4_7 - v_4 + 1000 y_153 <= 1000
 R214: x_7_1 + x_7_4 - v_7 + 1000 y_154 <= 1000
 R215: y_152 + y_153 + y_154 >= 1
 R216: x_1_5 + x_1_6 - v_1 + 1000 y_155 <= 1000
 R217: x_5_1 + x_5_6 - v_5 + 1000 y_156 <= 1000
 R218: x_6_1 + x_6_5 - v_6 + 1000 y_157 <= 1000
 R219: y_155 + y_156 + y_157 >= 1
 R220: x_1_5 + x_1_7 - v_1 + 1000 y_158 <= 1000
 R221: x_5_1 + x_5_7 - v_5 + 1000 y_159 <= 1000
 R222: x_7_1 + x_7_5 - v_7 + 1000 y_160 <= 1000
 R223: y_158 + y_159 + y_160 >= 1
 R224: x_1_6 + x_1_7 - v_1 + 1000 y_161 <= 1000
 R225: x_6_1 + x_6_7 - v_6 + 1000 y_162 <= 1000
 R226: x_7_1 + x_7_6 - v_7 + 1000 y_163 <= 1000
 R227: y_161 + y_162 + y_163 >= 1
 R228: x_2_3 + x_2_4 - v_2 + 1000 y_164 <= 1000
 R229: x_3_2 + x_3_4 - v_3 + 1000 y_165 <= 1000
 R230: x_4_2 + x_4_3 - v_4 + 1000 y_166 <= 1000
 R231: y_164 + y_165 + y_166 >= 1
 R232: x_2_3 + x_2_5 - v_2 + 1000 y_167 <= 1000
 R233: x_3_2 + x_3_5 - v_3 + 1000 y_168 <= 1000
 R234: x_5_2 + x_5_3 - v_5 + 1000 y_169 <= 1000
 R235: y_167 + y_168 + y_169 >= 1
 R236: x_2_3 + x_2_6 - v_2 + 1000 y_170 <= 1000
 R237: x_3_2 + x_3_6 - v_3 + 1000 y_171 <= 1000
 R238: x_6_2 + x_6_3 - v_6 + 1000 y_172 <= 1000
 R239: y_170 + y_171 + y_172 >= 1
 R240: x_2_3 + x_2_7 - v_2 + 1000 y_173 <= 1000
 R241: x_3_2 + x_3_7 - v_3 + 1000 y_174 <= 1000
 R242: x_7_2 + x_7_3 - v_7 + 1000 y_175 <= 1000
 R243: y_173 + y_174 + y_175 >= 1
 R244: x_2_4 + x_2_5 - v_2 + 1000 y_176 <= 1000
 R245: x_4_2 + x_4_5 - v_4 + 1000 y_177 <= 1000
 R246: x_5_2 + x_5_4 - v_5 + 1000 y_178 <= 1000
 R247: y_176 + y_177 + y_178 >= 1
 R248: x_2_4 + x_2_6 - v_2 + 1000 y_179 <= 1000
 R249: x_4_2 + x_4_6 - v_4 + 1000 y_180 <= 1000
 R250: x_6_2 + x_6_4 - v_6 + 1000 y_181 <= 1000
 R251: y_179 + y_180 + y_181 >= 1
 R252: x_2_4 + x_2_7 - v_2 + 1000 y_182 <= 1000
 R253: x_4_2 + x_4_7 - v_4 + 1000 y_183 <= 1000
 R254: x_7_2 + x_7_4 - v_7 + 1000 y_184 <= 1000
 R255: y_182 + y_183 + y_184 >= 1
 R256: x_2_5 + x_2_6 - v_2 + 1000 y_185 <= 1000
 R257: x_5_2 + x_5_6 - v_5 + 1000 y_186 <= 1000
 R258: x_6_2 + x_6_5 - v_6 + 1000 y_187 <= 1000
 R259: y_185 + y_186 + y_187 >= 1
 R260: x_2_5 + x_2_7 - v_2 + 1000 y_188 <= 1000
 R261: x_5_2 + x_5_7 - v_5 + 1000 y_189 <= 1000
 R262: x_7_2 + x_7_5 - v_7 + 1000 y_190 <= 1000
 R263: y_188 + y_189 + y_190 >= 1
 R264: x_2_6 + x_2_7 - v_2 + 1000 y_191 <= 1000
 R265: x_6_2 + x_6_7 - v_6 + 1000 y_192 <= 1000
 R266: x_7_2 + x_7_6 - v_7 + 1000 y_193 <= 1000
 R267: y_191 + y_192 + y_193 >= 1
 R268: x_3_4 + x_3_5 - v_3 + 1000 y_194 <= 1000
 R269: x_4_3 + x_4_5 - v_4 + 1000 y_195 <= 1000
 R270: x_5_3 + x_5_4 - v_5 + 1000 y_196 <= 1000
 R271: y_194 + y_195 + y_196 >= 1
 R272: x_3_4 + x_3_6 - v_3 + 1000 y_197 <= 1000
 R273: x_4_3 + x_4_6 - v_4 + 1000 y_198 <= 1000
 R274: x_6_3 + x_6_4 - v_6 + 1000 y_199 <= 1000
 R275: y_197 + y_198 + y_199 >= 1
 R276: x_3_4 + x_3_7 - v_3 + 1000 y_200 <= 1000
 R277: x_4_3 + x_4_7 - v_4 + 1000 y_201 <= 1000
 R278: x_7_3 + x_7_4 - v_7 + 1000 y_202 <= 1000
 R279: y_200 + y_201 + y_202 >= 1
 R280: x_3_5 + x_3_6 - v_3 + 1000 y_203 <= 1000
 R281: x_5_3 + x_5_6 - v_5 + 1000 y_204 <= 1000
 R282: x_6_3 + x_6_5 - v_6 + 1000 y_205 <= 1000
 R283: y_203 + y_204 + y_205 >= 1
 R284: x_3_5 + x_3_7 - v_3 + 1000 y_206 <= 1000
 R285: x_5_3 + x_5_7 - v_5 + 1000 y_207 <= 1000
 R286: x_7_3 + x_7_5 - v_7 + 1000 y_208 <= 1000
 R287: y_206 + y_207 + y_208 >= 1
 R288: x_3_6 + x_3_7 - v_3 + 1000 y_209 <= 1000
 R289: x_6_3 + x_6_7 - v_6 + 1000 y_210 <= 1000
 R290: x_7_3 + x_7_6 - v_7 + 1000 y_211 <= 1000
 R291: y_209 + y_210 + y_211 >= 1
 R292: x_4_5 + x_4_6 - v_4 + 1000 y_212 <= 1000
 R293: x_5_4 + x_5_6 - v_5 + 1000 y_213 <= 1000
 R294: x_6_4 + x_6_5 - v_6 + 1000 y_214 <= 1000
 R295: y_212 + y_213 + y_214 >= 1
 R296: x_4_5 + x_4_7 - v_4 + 1000 y_215 <= 1000
 R297: x_5_4 + x_5_7 - v_5 + 1000 y_216 <= 1000
 R298: x_7_4 + x_7_5 - v_7 + 1000 y_217 <= 1000
 R299: y_215 + y_216 + y_217 >= 1
 R300: x_4_6 + x_4_7 - v_4 + 1000 y_218 <= 1000
 R301: x_6_4 + x_6_7 - v_6 + 1000 y_219 <= 1000
 R302: x_7_4 + x_7_6 - v_7 + 1000 y_220 <= 1000
 R303: y_218 + y_219 + y_220 >= 1
 R304: x_5_6 + x_5_7 - v_5 + 1000 y_221 <= 1000
 R305: x_6_5 + x_6_7 - v_6 + 1000 y_222 <= 1000
 R306: x_7_5 + x_7_6 - v_7 + 1000 y_223 <= 1000
 R307: y_221 + y_222 + y_223 >= 1
 R308: x_0_1 + x_0_2 + x_0_3 - v_0 + 1000 y_224 <= 1000
 R309: x_1_0 + x_1_2 + x_1_3 - v_1 + 1000 y_225 <= 1000
 R310: x_2_0 + x_2_1 + x_2_3 - v_2 + 1000 y_226 <= 1000
 R311: x_3_0 + x_3_1 + x_3_2 - v_3 + 1000 y_227 <= 1000
 R312: y_224 + y_225 + y_226 + y_227 >= 1
 R313: x_0_1 + x_0_2 + x_0_4 - v_0 + 1000 y_228 <= 1000
 R314: x_1_0 + x_1_2 + x_1_4 - v_1 + 1000 y_229 <= 1000
 R315: x_2_0 + x_2_1 + x_2_4 - v_2 + 1000 y_230 <= 1000
 R316: x_4_0 + x_4_1 + x_4_2 - v_4 + 1000 y_231 <= 1000
 R317: y_228 + y_229 + y_230 + y_231 >= 1
 R318: x_0_1 + x_0_2 + x_0_5 - v_0 + 1000 y_232 <= 1000
 R319: x_1_0 + x_1_2 + x_1_5 - v_1 + 1000 y_233 <= 1000
 R320: x_2_0 + x_2_1 + x_2_5 - v_2 + 1000 y_234 <= 1000
 R321: x_5_0 + x_5_1 + x_5_2 - v_5 + 1000 y_235 <= 1000
 R322: y_232 + y_233 + y_234 + y_235 >= 1
 R323: x_0_1 + x_0_2 + x_0_6 - v_0 + 1000 y_236 <= 1000
 R324: x_1_0 + x_1_2 + x_1_6 - v_1 + 1000 y_237 <= 1000
 R325: x_2_0 + x_2_1 + x_2_6 - v_2 + 1000 y_238 <= 1000
 R326: x_6_0 + x_6_1 + x_6_2 - v_6 + 1000 y_239 <= 1000
 R327: y_236 + y_237 + y_238 + y_239 >= 1
 R328: x_0_1 + x_0_2 + x_0_7 - v_0 + 1000 y_240 <= 1000
 R329: x_1_0 + x_1_2 + x_1_7 - v_1 + 1000 y_241 <= 1000
 R330: x_2_0 + x_2_1 + x_2_7 - v_2 + 1000 y_242 <= 1000
 R331: x_7_0 + x_7_1 + x_7_2 - v_7 + 1000 y_243 <= 1000
 R332: y_240 + y_241 + y_242 + y_243 >= 1
 R333: x_0_1 + x_0_3 + x_0_4 - v_0 + 1000 y_244 <= 1000
 R334: x_1_0 + x_1_3 + x_1_4 - v_1 + 1000 y_245 <= 1000
 R335: x_3_0 + x_3_1 + x_3_4 - v_3 + 1000 y_246 <= 1000
 R336: x_4_0 + x_4_1 + x_4_3 - v_4 + 1000 y_247 <= 1000
 R337: y_244 + y_245 + y_246 + y_247 >= 1
 R338: x_0_1 + x_0_3 + x_0_5 - v_0 + 1000 y_248 <= 1000
 R339: x_1_0 + x_1_3 + x_1_5 - v_1 + 1000 y_249 <= 1000
 R340: x_3_0 + x_3_1 + x_3_5 - v_3 + 1000 y_250 <= 1000
 R341: x_5_0 + x_5_1 + x_5_3 - v_5 + 1000 y_251 <= 1000
 R342: y_248 + y_249 + y_250 + y_251 >= 1
 R343: x_0_1 + x_0_3 + x_0_6 - v_0 + 1000 y_252 <= 1000
 R344: x_1_0 + x_1_3 + x_1_6 - v_1 + 1000 y_253 <= 1000
 R345: x_3_0 + x_3_1 + x_3_6 - v_3 + 1000 y_254 <= 1000
 R346: x_6_0 + x_6_1 + x_6_3 - v_6 + 1000 y_255 <= 1000
 R347: y_252 + y_253 + y_254 + y_255 >= 1
 R348: x_0_1 + x_0_3 + x_0_7 - v_0 + 1000 y_256 <= 1000
 R349: x_1_0 + x_1_3 + x_1_7 - v_1 + 1000 y_257 <= 1000
 R350: x_3_0 + x_3_1 + x_3_7 - v_3 + 1000 y_258 <= 1000
 R351: x_7_0 + x_7_1 + x_7_3 - v_7 + 1000 y_259 <= 1000
 R352: y_256 + y_257 + y_258 + y_259 >= 1
 R353: x_0_1 + x_0_4 + x_0_5 - v_0 + 1000 y_260 <= 1000
 R354: x_1_0 + x_1_4 + x_1_5 - v_1 + 1000 y_261 <= 1000
 R355: x_4_0 + x_4_1 + x_4_5 - v_4 + 1000 y_262 <= 1000
 R356: x_5_0 + x_5_1 + x_5_4 - v_5 + 1000 y_263 <= 1000
 R357: y_260 + y_261 + y_262 + y_263 >= 1
 R358: x_0_1 + x_0_4 + x_0_6 - v_0 + 1000 y_264 <= 1000
 R359: x_1_0 + x_1_4 + x_1_6 - v_1 + 1000 y_265 <= 1000
 R360: x_4_0 + x_4_1 + x_4_6 - v_4 + 1000 y_266 <= 1000
 R361: x_6_0 + x_6_1 + x_6_4 - v_6 + 1000 y_267 <= 1000
 R362: y_264 + y_265 + y_266 + y_267 >= 1
 R363: x_0_1 + x_0_4 + x_0_7 - v_0 + 1000 y_268 <= 1000
 R364: x_1_0 + x_1_4 + x_1_7 - v_1 + 1000 y_269 <= 1000
 R365: x_4_0 + x_4_1 + x_4_7 - v_4 + 1000 y_270 <= 1000
 R366: x_7_0 + x_7_1 + x_7_4 - v_7 + 1000 y_271 <= 1000
 R367: y_268 + y_269 + y_270 + y_271 >= 1
 R368: x_0_1 + x_0_5 + x_0_6 - v_0 + 1000 y_272 <= 1000
 R369: x_1_0 + x_1_5 + x_1_6 - v_1 + 1000 y_273 <= 1000
 R370: x_5_0 + x_5_1 + x_5_6 - v_5 + 1000 y_274 <= 1000
 R371: x_6_0 + x_6_1 + x_6_5 - v_6 + 1000 y_275 <= 1000
 R372: y_272 + y_273 + y_274 + y_275 >= 1
 R373: x_0_1 + x_0_5 + x_0_7 - v_0 + 1000 y_276 <= 1000
 R374: x_1_0 + x_1_5 + x_1_7 - v_1 + 1000 y_277 <= 1000
 R375: x_5_0 + x_5_1 + x_5_7 - v_5 + 1000 y_278 <= 1000
 R376: x_7_0 + x_7_1 + x_7_5 - v_7 + 1000 y_279 <= 1000
 R377: y_276 + y_277 + y_278 + y_279 >= 1
 R378: x_0_1 + x_0_6 + x_0_7 - v_0 + 1000 y_280 <= 1000
 R379: x_1_0 + x_1_6 + x_1_7 - v_1 + 1000 y_281 <= 1000
 R380: x_6_0 + x_6_1 + x_6_7 - v_6 + 1000 y_282 <= 1000
 R381: x_7_0 + x_7_1 + x_7_6 - v_7 + 1000 y_283 <= 1000
 R382: y_280 + y_281 + y_282 + y_283 >= 1
 R383: x_0_2 + x_0_3 + x_0_4 - v_0 + 1000 y_284 <= 1000
 R384: x_2_0 + x_2_3 + x_2_4 - v_2 + 1000 y_285 <= 1000
 R385: x_3_0 + x_3_2 + x_3_4 - v_3 + 1000 y_286 <= 1000
 R386: x_4_0 + x_4_2 + x_4_3 - v_4 + 1000 y_287 <= 1000
 R387: y_284 + y_285 + y_286 + y_287 >= 1
 R388: x_0_2 + x_0_3 + x_0_5 - v_0 + 1000 y_288 <= 1000
 R389: x_2_0 + x_2_3 + x_2_5 - v_2 + 1000 y_289 <= 1000
 R390: x_3_0 + x_3_2 + x_3_5 - v_3 + 1000 y_290 <= 1000
 R391: x_5_0 + x_5_2 + x_5_3 - v_5 + 1000 y_291 <= 1000
 R392: y_288 + y_289 + y_290 + y_291 >= 1
 R393: x_0_2 + x_0_3 + x_0_6 - v_0 + 1000 y_292 <= 1000
 R394: x_2_0 + x_2_3 + x_2_6 - v_2 + 1000 y_293 <= 1000
 R395: x_3_0 + x_3_2 + x_3_6 - v_3 + 1000 y_294 <= 1000
 R396: x_6_0 + x_6_2 + x_6_3 - v_6 + 1000 y_295 <= 1000
 R397: y_292 + y_293 + y_294 + y_295 >= 1
 R398: x_0_2 + x_0_3 + x_0_7 - v_0 + 1000 y_296 <= 1000
 R399: x_2_0 + x_2_3 + x_2_7 - v_2 + 1000 y_297 <= 1000
 R400: x_3_0 + x_3_2 + x_3_7 - v_3 + 1000 y_298 <= 1000
 R401: x_7_0 + x_7_2 + x_7_3 - v_7 + 1000 y_299 <= 1000
 R402: y_296 + y_297 + y_298 + y_299 >= 1
 R403: x_0_2 + x_0_4 + x_0_5 - v_0 + 1000 y_300 <= 1000
 R404: x_2_0 + x_2_4 + x_2_5 - v_2 + 1000 y_301 <= 1000
 R405: x_4_0 + x_4_2 + x_4_5 - v_4 + 1000 y_302 <= 1000
 R406: x_5_0 + x_5_2 + x_5_4 - v_5 + 1000 y_303 <= 1000
 R407: y_300 + y_301 + y_302 + y_303 >= 1
 R408: x_0_2 + x_0_4 + x_0_6 - v_0 + 1000 y_304 <= 1000
 R409: x_2_0 + x_2_4 + x_2_6 - v_2 + 1000 y_305 <= 1000
 R410: x_4_0 + x_4_2 + x_4_6 - v_4 + 1000 y_306 <= 1000
 R411: x_6_0 + x_6_2 + x_6_4 - v_6 + 1000 y_307 <= 1000
 R412: y_304 + y_305 + y_306 + y_307 >= 1
 R413: x_0_2 + x_0_4 + x_0_7 - v_0 + 1000 y_308 <= 1000
 R414: x_2_0 + x_2_4 + x_2_7 - v_2 + 1000 y_309 <= 1000
 R415: x_4_0 + x_4_2 + x_4_7 - v_4 + 1000 y_310 <= 1000
 R416: x_7_0 + x_7_2 + x_7_4 - v_7 + 1000 y_311 <= 1000
 R417: y_308 + y_309 + y_310 + y_311 >= 1
 R418: x_0_2 + x_0_5 + x_0_6 - v_0 + 1000 y_312 <= 1000
 R419: x_2_0 + x_2_5 + x_2_6 - v_2 + 1000 y_313 <= 1000
 R420: x_5_0 + x_5_2 + x_5_6 - v_5 + 1000 y_314 <= 1000
 R421: x_6_0 + x_6_2 + x_6_5 - v_6 + 1000 y_315 <= 1000
 R422: y_312 + y_313 + y_314 + y_315 >= 1
 R423: x_0_2 + x_0_5 + x_0_7 - v_0 + 1000 y_316 <= 1000
 R424: x_2_0 + x_2_5 + x_2_7 - v_2 + 1000 y_317 <= 1000
 R425: x_5_0 + x_5_2 + x_5_7 - v_5 + 1000 y_318 <= 1000
 R426: x_7_0 + x_7_2 + x_7_5 - v_7 + 1000 y_319 <= 1000
 R427: y_316 + y_317 + y_318 + y_319 >= 1
 R428: x_0_2 + x_0_6 + x_0_7 - v_0 + 1000 y_320 <= 1000
 R429: x_2_0 + x_2_6 + x_2_7 - v_2 + 1000 y_321 <= 1000
 R430: x_6_0 + x_6_2 + x_6_7 - v_6 + 1000 y_322 <= 1000
 R431: x_7_0 + x_7_2 + x_7_6 - v_7 + 1000 y_323 <= 1000
 R432: y_320 + y_321 + y_322 + y_323 >= 1
 R433: x_0_3 + x_0_4 + x_0_5 - v_0 + 1000 y_324 <= 1000
 R434: x_3_0 + x_3_4 + x_3_5 - v_3 + 1000 y_325 <= 1000
 R435: x_4_0 + x_4_3 + x_4_5 - v_4 + 1000 y_326 <= 1000
 R436: x_5_0 + x_5_3 + x_5_4 - v_5 + 1000 y_327 <= 1000
 R437: y_324 + y_325 + y_326 + y_327 >= 1
 R438: x_0_3 + x_0_4 + x_0_6 - v_0 + 1000 y_328 <= 1000
 R439: x_3_0 + x_3_4 + x_3_6 - v_3 + 1000 y_329 <= 1000
 R440: x_4_0 + x_4_3 + x_4_6 - v_4 + 1000 y_330 <= 1000
 R441: x_6_0 + x_6_3 + x_6_4 - v_6 + 1000 y_331 <= 1000
 R442: y_328 + y_329 + y_330 + y_331 >= 1
 R443: x_0_3 + x_0_4 + x_0_7 - v_0 + 1000 y_332 <= 1000
 R444: x_3_0 + x_3_4 + x_3_7 - v_3 + 1000 y_333 <= 1000
 R445: x_4_0 + x_4_3 + x_4_7 - v_4 + 1000 y_334 <= 1000
 R446: x_7_0 + x_7_3 + x_7_4 - v_7 + 1000 y_335 <= 1000
 R447: y_332 + y_333 + y_334 + y_335 >= 1
 R448: x_0_3 + x_0_5 + x_0_6 - v_0 + 1000 y_336 <= 1000
 R449: x_3_0 + x_3_5 + x_3_6 - v_3 + 1000 y_337 <= 1000
 R450: x_5_0 + x_5_3 + x_5_6 - v_5 + 1000 y_338 <= 1000
 R451: x_6_0 + x_6_3 + x_6_5 - v_6 + 1000 y_339 <= 1000
 R452: y_336 + y_337 + y_338 + y_339 >= 1
 R453: x_0_3 + x_0_5 + x_0_7 - v_0 + 1000 y_340 <= 1000
 R454: x_3_0 + x_3_5 + x_3_7 - v_3 + 1000 y_341 <= 1000
 R455: x_5_0 + x_5_3 + x_5_7 - v_5 + 1000 y_342 <= 1000
 R456: x_7_0 + x_7_3 + x_7_5 - v_7 + 1000 y_343 <= 1000
 R457: y_340 + y_341 + y_342 + y_343 >= 1
 R458: x_0_3 + x_0_6 + x_0_7 - v_0 + 1000 y_344 <= 1000
 R459: x_3_0 + x_3_6 + x_3_7 - v_3 + 1000 y_345 <= 1000
 R460: x_6_0 + x_6_3 + x_6_7 - v_6 + 1000 y_346 <= 1000
 R461: x_7_0 + x_7_3 + x_7_6 - v_7 + 1000 y_347 <= 1000
 R462: y_344 + y_345 + y_346 + y_347 >= 1
 R463: x_0_4 + x_0_5 + x_0_6 - v_0 + 1000 y_348 <= 1000
 R464: x_4_0 + x_4_5 + x_4_6 - v_4 + 1000 y_349 <= 1000
 R465: x_5_0 + x_5_4 + x_5_6 - v_5 + 1000 y_350 <= 1000
 R466: x_6_0 + x_6_4 + x_6_5 - v_6 + 1000 y_351 <= 1000
 R467: y_348 + y_349 + y_350 + y_351 >= 1
 R468: x_0_4 + x_0_5 + x_0_7 - v_0 + 1000 y_352 <= 1000
 R469: x_4_0 + x_4_5 + x_4_7 - v_4 + 1000 y_353 <= 1000
 R470: x_5_0 + x_5_4 + x_5_7 - v_5 + 1000 y_354 <= 1000
 R471: x_7_0 + x_7_4 + x_7_5 - v_7 + 1000 y_355 <= 1000
 R472: y_352 + y_353 + y_354 + y_355 >= 1
 R473: x_0_4 + x_0_6 + x_0_7 - v_0 + 1000 y_356 <= 1000
 R474: x_4_0 + x_4_6 + x_4_7 - v_4 + 1000 y_357 <= 1000
 R475: x_6_0 + x_6_4 + x_6_7 - v_6 + 1000 y_358 <= 1000
 R476: x_7_0 + x_7_4 + x_7_6 - v_7 + 1000 y_359 <= 1000
 R477: y_356 + y_357 + y_358 + y_359 >= 1
 R478: x_0_5 + x_0_6 + x_0_7 - v_0 + 1000 y_360 <= 1000
 R479: x_5_0 + x_5_6 + x_5_7 - v_5 + 1000 y_361 <= 1000
 R480: x_6_0 + x_6_5 + x_6_7 - v_6 + 1000 y_362 <= 1000
 R481: x_7_0 + x_7_5 + x_7_6 - v_7 + 1000 y_363 <= 1000
 R482: y_360 + y_361 + y_362 + y_363 >= 1
 R483: x_1_2 + x_1_3 + x_1_4 - v_1 + 1000 y_364 <= 1000
 R484: x_2_1 + x_2_3 + x_2_4 - v_2 + 1000 y_365 <= 1000
 R485: x_3_1 + x_3_2 + x_3_4 - v_3 + 1000 y_366 <= 1000
 R486: x_4_1 + x_4_2 + x_4_3 - v_4 + 1000 y_367 <= 1000
 R487: y_364 + y_365 + y_366 + y_367 >= 1
 R488: x_1_2 + x_1_3 + x_1_5 - v_1 + 1000 y_368 <= 1000
 R489: x_2_1 + x_2_3 + x_2_5 - v_2 + 1000 y_369 <= 1000
 R490: x_3_1 + x_3_2 + x_3_5 - v_3 + 1000 y_370 <= 1000
 R491: x_5_1 + x_5_2 + x_5_3 - v_5 + 1000 y_371 <= 1000
 R492: y_368 + y_369 + y_370 + y_371 >= 1
 R493: x_1_2 + x_1_3 + x_1_6 - v_1 + 1000 y_372 <= 1000
 R494: x_2_1 + x_2_3 + x_2_6 - v_2 + 1000 y_373 <= 1000
 R495: x_3_1 + x_3_2 + x_3_6 - v_3 + 1000 y_374 <= 1000
 R496: x_6_1 + x_6_2 + x_6_3 - v_6 + 1000 y_375 <= 1000
 R497: y_372 + y_373 + y_374 + y_375 >= 1
 R498: x_1_2 + x_1_3 + x_1_7 - v_1 + 1000 y_376 <= 1000
 R499: x_2_1 + x_2_3 + x_2_7 - v_2 + 1000 y_377 <= 1000
 R500: x_3_1 + x_3_2 + x_3_7 - v_3 + 1000 y_378 <= 1000
 R501: x_7_1 + x_7_2 + x_7_3 - v_7 + 1000 y_379 <= 1000
 R502: y_376 + y_377 + y_378 + y_379 >= 1
 R503: x_1_2 + x_1_4 + x_1_5 - v_1 + 1000 y_380 <= 1000
 R504: x_2_1 + x_2_4 + x_2_5 - v_2 + 1000 y_381 <= 1000
 R505: x_4_1 + x_4_2 + x_4_5 - v_4 + 1000 y_382 <= 1000
 R506: x_5_1 + x_5_2 + x_5_4 - v_5 + 1000 y_383 <= 1000
 R507: y_380 + y_381 + y_382 + y_383 >= 1
 R508: x_1_2 + x_1_4 + x_1_6 - v_1 + 1000 y_384 <= 1000
 R509: x_2_1 + x_2_4 + x_2_6 - v_2 + 1000 y_385 <= 1000
 R510: x_4_1 + x_4_2 + x_4_6 - v_4 + 1000 y_386 <= 1000
 R511: x_6_1 + x_6_2 + x_6_4 - v_6 + 1000 y_387 <= 1000
 R512: y_384 + y_385 + y_386 + y_387 >= 1
 R513: x_1_2 + x_1_4 + x_1_7 - v_1 + 1000 y_388 <= 1000
 R514: x_2_1 + x_2_4 + x_2_7 - v_2 + 1000 y_389 <= 1000
 R515: x_4_1 + x_4_2 + x_4_7 - v_4 + 1000 y_390 <= 1000
 R516: x_7_1 + x_7_2 + x_7_4 - v_7 + 1000 y_391 <= 1000
 R517: y_388 + y_389 + y_390 + y_391 >= 1
 R518: x_1_2 + x_1_5 + x_1_6 - v_1 + 1000 y_392 <= 1000
 R519: x_2_1 + x_2_5 + x_2_6 - v_2 + 1000 y_393 <= 1000
 R520: x_5_1 + x_5_2 + x_5_6 - v_5 + 1000 y_394 <= 1000
 R521: x_6_1 + x_6_2 + x_6_5 - v_6 + 1000 y_395 <= 1000
 R522: y_392 + y_393 + y_394 + y_395 >= 1
 R523: x_1_2 + x_1_5 + x_1_7 - v_1 + 1000 y_396 <= 1000
 R524: x_2_1 + x_2_5 + x_2_7 - v_2 + 1000 y_397 <= 1000
 R525: x_5_1 + x_5_2 + x_5_7 - v_5 + 1000 y_398 <= 1000
 R526: x_7_1 + x_7_2 + x_7_5 - v_7 + 1000 y_399 <= 1000
 R527: y_396 + y_397 + y_398 + y_399 >= 1
 R528: x_1_2 + x_1_6 + x_1_7 - v_1 + 1000 y_400 <= 1000
 R529: x_2_1 + x_2_6 + x_2_7 - v_2 + 1000 y_401 <= 1000
 R530: x_6_1 + x_6_2 + x_6_7 - v_6 + 1000 y_402 <= 1000
 R531: x_7_1 + x_7_2 + x_7_6 - v_7 + 1000 y_403 <= 1000
 R532: y_400 + y_401 + y_402 + y_403 >= 1
 R533: x_1_3 + x_1_4 + x_1_5 - v_1 + 1000 y_404 <= 1000
 R534: x_3_1 + x_3_4 + x_3_5 - v_3 + 1000 y_405 <= 1000
 R535: x_4_1 + x_4_3 + x_4_5 - v_4 + 1000 y_406 <= 1000
 R536: x_5_1 + x_5_3 + x_5_4 - v_5 + 1000 y_407 <= 1000
 R537: y_404 + y_405 + y_406 + y_407 >= 1
 R538: x_1_3 + x_1_4 + x_1_6 - v_1 + 1000 y_408 <= 1000
 R539: x_3_1 + x_3_4 + x_3_6 - v_3 + 1000 y_409 <= 1000
 R540: x_4_1 + x_4_3 + x_4_6 - v_4 + 1000 y_410 <= 1000
 R541: x_6_1 + x_6_3 + x_6_4 - v_6 + 1000 y_411 <= 1000
 R542: y_408 + y_409 + y_410 + y_411 >= 1
 R543: x_1_3 + x_1_4 + x_1_7 - v_1 + 1000 y_412 <= 1000
 R544: x_3_1 + x_3_4 + x_3_7 - v_3 + 1000 y_413 <= 1000
 R545: x_4_1 + x_4_3 + x_4_7 - v_4 + 1000 y_414 <= 1000
 R546: x_7_1 + x_7_3 + x_7_4 - v_7 + 1000 y_415 <= 1000
 R547: y_412 + y_413 + y_414 + y_415 >= 1
 R548: x_1_3 + x_1_5 + x_1_6 - v_1 + 1000 y_416 <= 1000
 R549: x_3_1 + x_3_5 + x_3_6 - v_3 + 1000 y_417 <= 1000
 R550: x_5_1 + x_5_3 + x_5_6 - v_5 + 1000 y_418 <= 1000
 R551: x_6_1 + x_6_3 + x_6_5 - v_6 + 1000 y_419 <= 1000
 R552: y_416 + y_417 + y_418 + y_419 >= 1
 R553: x_1_3 + x_1_5 + x_1_7 - v_1 + 1000 y_420 <= 1000
 R554: x_3_1 + x_3_5 + x_3_7 - v_3 + 1000 y_421 <= 1000
 R555: x_5_1 + x_5_3 + x_5_7 - v_5 + 1000 y_422 <= 1000
 R556: x_7_1 + x_7_3 + x_7_5 - v_7 + 1000 y_423 <= 1000
 R557: y_420 + y_421 + y_422 + y_423 >= 1
 R558: x_1_3 + x_1_6 + x_1_7 - v_1 + 1000 y_424 <= 1000
 R559: x_3_1 + x_3_6 + x_3_7 - v_3 + 1000 y_425 <= 1000
 R560: x_6_1 + x_6_3 + x_6_7 - v_6 + 1000 y_426 <= 1000
 R561: x_7_1 + x_7_3 + x_7_6 - v_7 + 1000 y_427 <= 1000
 R562: y_424 + y_425 + y_426 + y_427 >= 1
 R563: x_1_4 + x_1_5 + x_1_6 - v_1 + 1000 y_428 <= 1000
 R564: x_4_1 + x_4_5 + x_4_6 - v_4 + 1000 y_429 <= 1000
 R565: x_5_1 + x_5_4 + x_5_6 - v_5 + 1000 y_430 <= 1000
 R566: x_6_1 + x_6_4 + x_6_5 - v_6 + 1000 y_431 <= 1000
 R567: y_428 + y_429 + y_430 + y_431 >= 1
 R568: x_1_4 + x_1_5 + x_1_7 - v_1 + 1000 y_432 <= 1000
 R569: x_4_1 + x_4_5 + x_4_7 - v_4 + 1000 y_433 <= 1000
 R570: x_5_1 + x_5_4 + x_5_7 - v_5 + 1000 y_434 <= 1000
 R571: x_7_1 + x_7_4 + x_7_5 - v_7 + 1000 y_435 <= 1000
 R572: y_432 + y_433 + y_434 + y_435 >= 1
 R573: x_1_4 + x_1_6 + x_1_7 - v_1 + 1000 y_436 <= 1000
 R574: x_4_1 + x_4_6 + x_4_7 - v_4 + 1000 y_437 <= 1000
 R575: x_6_1 + x_6_4 + x_6_7 - v_6 + 1000 y_438 <= 1000
 R576: x_7_1 + x_7_4 + x_7_6 - v_7 + 1000 y_439 <= 1000
 R577: y_436 + y_437 + y_438 + y_439 >= 1
 R578: x_1_5 + x_1_6 + x_1_7 - v_1 + 1000 y_440 <= 1000
 R579: x_5_1 + x_5_6 + x_5_7 - v_5 + 1000 y_441 <= 1000
 R580: x_6_1 + x_6_5 + x_6_7 - v_6 + 1000 y_442 <= 1000
 R581: x_7_1 + x_7_5 + x_7_6 - v_7 + 1000 y_443 <= 1000
 R582: y_440 + y_441 + y_442 + y_443 >= 1
 R583: x_2_3 + x_2_4 + x_2_5 - v_2 + 1000 y_444 <= 1000
 R584: x_3_2 + x_3_4 + x_3_5 - v_3 + 1000 y_445 <= 1000
 R585: x_4_2 + x_4_3 + x_4_5 - v_4 + 1000 y_446 <= 1000
 R586: x_5_2 + x_5_3 + x_5_4 - v_5 + 1000 y_447 <= 1000
 R587: y_444 + y_445 + y_446 + y_447 >= 1
 R588: x_2_3 + x_2_4 + x_2_6 - v_2 + 1000 y_448 <= 1000
 R589: x_3_2 + x_3_4 + x_3_6 - v_3 + 1000 y_449 <= 1000
 R590: x_4_2 + x_4_3 + x_4_6 - v_4 + 1000 y_450 <= 1000
 R591: x_6_2 + x_6_3 + x_6_4 - v_6 + 1000 y_451 <= 1000
 R592: y_448 + y_449 + y_450 + y_451 >= 1
 R593: x_2_3 + x_2_4 + x_2_7 - v_2 + 1000 y_452 <= 1000
 R594: x_3_2 + x_3_4 + x_3_7 - v_3 + 1000 y_453 <= 1000
 R595: x_4_2 + x_4_3 + x_4_7 - v_4 + 1000 y_454 <= 1000
 R596: x_7_2 + x_7_3 + x_7_4 - v_7 + 1000 y_455 <= 1000
 R597: y_452 + y_453 + y_454 + y_455 >= 1
 R598: x_2_3 + x_2_5 + x_2_6 - v_2 + 1000 y_456 <= 1000
 R599: x_3_2 + x_3_5 + x_3_6 - v_3 + 1000 y_457 <= 1000
 R600: x_5_2 + x_5_3 + x_5_6 - v_5 + 1000 y_458 <= 1000
 R601: x_6_2 + x_6_3 + x_6_5 - v_6 + 1000 y_459 <= 1000
 R602: y_456 + y_457 + y_458 + y_459 >= 1
 R603: x_2_3 + x_2_5 + x_2_7 - v_2 + 1000 y_460 <= 1000
 R604: x_3_2 + x_3_5 + x_3_7 - v_3 + 1000 y_461 <= 1000
 R605: x_5_2 + x_5_3 + x_5_7 - v_5 + 1000 y_462 <= 1000
 R606: x_7_2 + x_7_3 + x_7_5 - v_7 + 1000 y_463 <= 1000
 R607: y_460 + y_461 + y_462 + y_463 >= 1
 R608: x_2_3 + x_2_6 + x_2_7 - v_2 + 1000 y_464 <= 1000
 R609: x_3_2 + x_3_6 + x_3_7 - v_3 + 1000 y_465 <= 1000
 R610: x_6_2 + x_6_3 + x_6_7 - v_6 + 1000 y_466 <= 1000
 R611: x_7_2 + x_7_3 + x_7_6 - v_7 + 1000 y_467 <= 1000
 R612: y_464 + y_465 + y_466 + y_467 >= 1
 R613: x_2_4 + x_2_5 + x_2_6 - v_2 + 1000 y_468 <= 1000
 R614: x_4_2 + x_4_5 + x_4_6 - v_4 + 1000 y_469 <= 1000
 R615: x_5_2 + x_5_4 + x_5_6 - v_5 + 1000 y_470 <= 1000
 R616: x_6_2 + x_6_4 + x_6_5 - v_6 + 1000 y_471 <= 1000
 R617: y_468 + y_469 + y_470 + y_471 >= 1
 R618: x_2_4 + x_2_5 + x_2_7 - v_2 + 1000 y_472 <= 1000
 R619: x_4_2 + x_4_5 + x_4_7 - v_4 + 1000 y_473 <= 1000
 R620: x_5_2 + x_5_4 + x_5_7 - v_5 + 1000 y_474 <= 1000
 R621: x_7_2 + x_7_4 + x_7_5 - v_7 + 1000 y_475 <= 1000
 R622: y_472 + y_473 + y_474 + y_475 >= 1
 R623: x_2_4 + x_2_6 + x_2_7 - v_2 + 1000 y_476 <= 1000
 R624: x_4_2 + x_4_6 + x_4_7 - v_4 + 1000 y_477 <= 1000
 R625: x_6_2 + x_6_4 + x_6_7 - v_6 + 1000 y_478 <= 1000
 R626: x_7_2 + x_7_4 + x_7_6 - v_7 + 1000 y_479 <= 1000
 R627: y_476 + y_477 + y_478 + y_479 >= 1
 R628: x_2_5 + x_2_6 + x_2_7 - v_2 + 1000 y_480 <= 1000
 R629: x_5_2 + x_5_6 + x_5_7 - v_5 + 1000 y_481 <= 1000
 R630: x_6_2 + x_6_5 + x_6_7 - v_6 + 1000 y_482 <= 1000
 R631: x_7_2 + x_7_5 + x_7_6 - v_7 + 1000 y_483 <= 1000
 R632: y_480 + y_481 + y_482 + y_483 >= 1
 R633: x_3_4 + x_3_5 + x_3_6 - v_3 + 1000 y_484 <= 1000
 R634: x_4_3 + x_4_5 + x_4_6 - v_4 + 1000 y_485 <= 1000
 R635: x_5_3 + x_5_4 + x_5_6 - v_5 + 1000 y_486 <= 1000
 R636: x_6_3 + x_6_4 + x_6_5 - v_6 + 1000 y_487 <= 1000
 R637: y_484 + y_485 + y_486 + y_487 >= 1
 R638: x_3_4 + x_3_5 + x_3_7 - v_3 + 1000 y_488 <= 1000
 R639: x_4_3 + x_4_5 + x_4_7 - v_4 + 1000 y_489 <= 1000
 R640: x_5_3 + x_5_4 + x_5_7 - v_5 + 1000 y_490 <= 1000
 R641: x_7_3 + x_7_4 + x_7_5 - v_7 + 1000 y_491 <= 1000
 R642: y_488 + y_489 + y_490 + y_491 >= 1
 R643: x_3_4 + x_3_6 + x_3_7 - v_3 + 1000 y_492 <= 1000
 R644: x_4_3 + x_4_6 + x_4_7 - v_4 + 1000 y_493 <= 1000
 R645: x_6_3 + x_6_4 + x_6_7 - v_6 + 1000 y_494 <= 1000
 R646: x_7_3 + x_7_4 + x_7_6 - v_7 + 1000 y_495 <= 1000
 R647: y_492 + y_493 + y_494 + y_495 >= 1
 R648: x_3_5 + x_3_6 + x_3_7 - v_3 + 1000 y_496 <= 1000
 R649: x_5_3 + x_5_6 + x_5_7 - v_5 + 1000 y_497 <= 1000
 R650: x_6_3 + x_6_5 + x_6_7 - v_6 + 1000 y_498 <= 1000
 R651: x_7_3 + x_7_5 + x_7_6 - v_7 + 1000 y_499 <= 1000
 R652: y_496 + y_497 + y_498 + y_499 >= 1
 R653: x_4_5 + x_4_6 + x_4_7 - v_4 + 1000 y_500 <= 1000
 R654: x_5_4 + x_5_6 + x_5_7 - v_5 + 1000 y_501 <= 1000
 R655: x_6_4 + x_6_5 + x_6_7 - v_6 + 1000 y_502 <= 1000
 R656: x_7_4 + x_7_5 + x_7_6 - v_7 + 1000 y_503 <= 1000
 R657: y_500 + y_501 + y_502 + y_503 >= 1
 R658: x_0_1 - x_1_0 = 0
 R659: x_0_2 - x_2_0 = 0
 R660: x_0_3 - x_3_0 = 0
 R661: x_0_4 - x_4_0 = 0
 R662: x_0_5 - x_5_0 = 0
 R663: x_0_6 - x_6_0 = 0
 R664: x_0_7 - x_7_0 = 0
 R665: - x_0_1 + x_1_0 = 0
 R666: x_1_2 - x_2_1 = 0
 R667: x_1_3 - x_3_1 = 0
 R668: x_1_4 - x_4_1 = 0
 R669: x_1_5 - x_5_1 = 0
 R670: x_1_6 - x_6_1 = 0
 R671: x_1_7 - x_7_1 = 0
 R672: - x_0_2 + x_2_0 = 0
 R673: - x_1_2 + x_2_1 = 0
 R674: x_2_3 - x_3_2 = 0
 R675: x_2_4 - x_4_2 = 0
 R676: x_2_5 - x_5_2 = 0
 R677: x_2_6 - x_6_2 = 0
 R678: x_2_7 - x_7_2 = 0
 R679: - x_0_3 + x_3_0 = 0
 R680: - x_1_3 + x_3_1 = 0
 R681: - x_2_3 + x_3_2 = 0
 R682: x_3_4 - x_4_3 = 0
 R683: x_3_5 - x_5_3 = 0
 R684: x_3_6 - x_6_3 = 0
 R685: x_3_7 - x_7_3 = 0
 R686: - x_0_4 + x_4_0 = 0
 R687: - x_1_4 + x_4_1 = 0
 R688: - x_2_4 + x_4_2 = 0
 R689: - x_3_4 + x_4_3 = 0
 R690: x_4_5 - x_5_4 = 0
 R691: x_4_6 - x_6_4 = 0
 R692: x_4_7 - x_7_4 = 0
 R693: - x_0_5 + x_5_0 = 0
 R694: - x_1_5 + x_5_1 = 0
 R695: - x_2_5 + x_5_2 = 0
 R696: - x_3_5 + x_5_3 = 0
 R697: - x_4_5 + x_5_4 = 0
 R698: x_5_6 - x_6_5 = 0
 R699: x_5_7 - x_7_5 = 0
 R700: - x_0_6 + x_6_0 = 0
 R701: - x_1_6 + x_6_1 = 0
 R702: - x_2_6 + x_6_2 = 0
 R703: - x_3_6 + x_6_3 = 0
 R704: - x_4_6 + x_6_4 = 0
 R705: - x_5_6 + x_6_5 = 0
 R706: x_6_7 - x_7_6 = 0
 R707: - x_0_7 + x_7_0 = 0
 R708: - x_1_7 + x_7_1 = 0
 R709: - x_2_7 + x_7_2 = 0
 R710: - x_3_7 + x_7_3 = 0
 R711: - x_4_7 + x_7_4 = 0
 R712: - x_5_7 + x_7_5 = 0
 R713: - x_6_7 + x_7_6 = 0
 R714: v_0 = 1
 R715: x_0_1 + x_0_2 + x_0_3 + x_0_4 + x_0_5 + x_0_6 + x_0_7 - 2.73 v_0
   >= 0
 R716: x_1_0 + x_1_2 + x_1_3 + x_1_4 + x_1_5 + x_1_6 + x_1_7 - 2.73 v_1
   >= 0
 R717: x_2_0 + x_2_1 + x_2_3 + x_2_4 + x_2_5 + x_2_6 + x_2_7 - 2.73 v_2
   >= 0
 R718: x_3_0 + x_3_1 + x_3_2 + x_3_4 + x_3_5 + x_3_6 + x_3_7 - 2.73 v_3
   >= 0
 R719: x_4_0 + x_4_1 + x_4_2 + x_4_3 + x_4_5 + x_4_6 + x_4_7 - 2.73 v_4
   >= 0
 R720: x_5_0 + x_5_1 + x_5_2 + x_5_3 + x_5_4 + x_5_6 + x_5_7 - 2.73 v_5
   >= 0
 R721: x_6_0 + x_6_1 + x_6_2 + x_6_3 + x_6_4 + x_6_5 + x_6_7 - 2.73 v_6
   >= 0
 R722: x_7_0 + x_7_1 + x_7_2 + x_7_3 + x_7_4 + x_7_5 + x_7_6 - 2.73 v_7
   >= 0
Bounds
 alpha >= 1
Binaries
 y_0 y_1 y_2 y_3 y_4 y_5 y_6 y_7 y_8 y_9 y_10 y_11 y_12 y_13 y_14 y_15 y_16
 y_17 y_18 y_19 y_20 y_21 y_22 y_23 y_24 y_25 y_26 y_27 y_28 y_29 y_30 y_31
 y_32 y_33 y_34 y_35 y_36 y_37 y_38 y_39 y_40 y_41 y_42 y_43 y_44 y_45 y_46
 y_47 y_48 y_49 y_50 y_51 y_52 y_53 y_54 y_55 y_56 y_57 y_58 y_59 y_60 y_61
 y_62 y_63 y_64 y_65 y_66 y_67 y_68 y_69 y_70 y_71 y_72 y_73 y_74 y_75 y_76
 y_77 y_78 y_79 y_80 y_81 y_82 y_83 y_84 y_85 y_86 y_87 y_88 y_89 y_90 y_91
 y_92 y_93 y_94 y_95 y_96 y_97 y_98 y_99 y_100 y_101 y_102 y_103 y_104
 y_105 y_106 y_107 y_108 y_109 y_110 y_111 y_112 y_113 y_114 y_115 y_116
 y_117 y_118 y_119 y_120 y_121 y_122 y_123 y_124 y_125 y_126 y_127 y_128
 y_129 y_130 y_131 y_132 y_133 y_134 y_135 y_136 y_137 y_138 y_139 y_140
 y_141 y_142 y_143 y_144 y_145 y_146 y_147 y_148 y_149 y_150 y_151 y_152
 y_153 y_154 y_155 y_156 y_157 y_158 y_159 y_160 y_161 y_162 y_163 y_164
 y_165 y_166 y_167 y_168 y_169 y_170 y_171 y_172 y_173 y_174 y_175 y_176
 y_177 y_178 y_179 y_180 y_181 y_182 y_183 y_184 y_185 y_186 y_187 y_188
 y_189 y_190 y_191 y_192 y_193 y_194 y_195 y_196 y_197 y_198 y_199 y_200
 y_201 y_202 y_203 y_204 y_205 y_206 y_207 y_208 y_209 y_210 y_211 y_212
 y_213 y_214 y_215 y_216 y_217 y_218 y_219 y_220 y_221 y_222 y_223 y_224
 y_225 y_226 y_227 y_228 y_229 y_230 y_231 y_232 y_233 y_234 y_235 y_236
 y_237 y_238 y_239 y_240 y_241 y_242 y_243 y_244 y_245 y_246 y_247 y_248
 y_249 y_250 y_251 y_252 y_253 y_254 y_255 y_256 y_257 y_258 y_259 y_260
 y_261 y_262 y_263 y_264 y_265 y_266 y_267 y_268 y_269 y_270 y_271 y_272
 y_273 y_274 y_275 y_276 y_277 y_278 y_279 y_280 y_281 y_282 y_283 y_284
 y_285 y_286 y_287 y_288 y_289 y_290 y_291 y_292 y_293 y_294 y_295 y_296
 y_297 y_298 y_299 y_300 y_301 y_302 y_303 y_304 y_305 y_306 y_307 y_308
 y_309 y_310 y_311 y_312 y_313 y_314 y_315 y_316 y_317 y_318 y_319 y_320
 y_321 y_322 y_323 y_324 y_325 y_326 y_327 y_328 y_329 y_330 y_331 y_332
 y_333 y_334 y_335 y_336 y_337 y_338 y_339 y_340 y_341 y_342 y_343 y_344
 y_345 y_346 y_347 y_348 y_349 y_350 y_351 y_352 y_353 y_354 y_355 y_356
 y_357 y_358 y_359 y_360 y_361 y_362 y_363 y_364 y_365 y_366 y_367 y_368
 y_369 y_370 y_371 y_372 y_373 y_374 y_375 y_376 y_377 y_378 y_379 y_380
 y_381 y_382 y_383 y_384 y_385 y_386 y_387 y_388 y_389 y_390 y_391 y_392
 y_393 y_394 y_395 y_396 y_397 y_398 y_399 y_400 y_401 y_402 y_403 y_404
 y_405 y_406 y_407 y_408 y_409 y_410 y_411 y_412 y_413 y_414 y_415 y_416
 y_417 y_418 y_419 y_420 y_421 y_422 y_423 y_424 y_425 y_426 y_427 y_428
 y_429 y_430 y_431 y_432 y_433 y_434 y_435 y_436 y_437 y_438 y_439 y_440
 y_441 y_442 y_443 y_444 y_445 y_446 y_447 y_448 y_449 y_450 y_451 y_452
 y_453 y_454 y_455 y_456 y_457 y_458 y_459 y_460 y_461 y_462 y_463 y_464
 y_465 y_466 y_467 y_468 y_469 y_470 y_471 y_472 y_473 y_474 y_475 y_476
 y_477 y_478 y_479 y_480 y_481 y_482 y_483 y_484 y_485 y_486 y_487 y_488
 y_489 y_490 y_491 y_492 y_493 y_494 y_495 y_496 y_497 y_498 y_499 y_500
 y_501 y_502 y_503
End
